results/log/BA_08_deadline_heurTrue.log

Gurobi 10.0.1 (win64) logging started Thu Oct  5 12:31:47 2023

Set parameter LogFile to value "./results//log/BA_08_deadline_heurTrue.log"
Gurobi Optimizer version 10.0.1 build v10.0.1rc0 (win64)

CPU model: AMD Ryzen 7 3700X 8-Core Processor, instruction set [SSE2|AVX|AVX2]
Thread count: 8 physical cores, 16 logical processors, using up to 16 threads

Optimize a model with 183 rows, 124 columns and 658 nonzeros
Model fingerprint: 0x4f6ee270
Model has 1 quadratic constraint
Variable types: 0 continuous, 124 integer (105 binary)
Coefficient statistics:
  Matrix range     [1e+00, 1e+07]
  QMatrix range    [1e+00, 1e+00]
  QLMatrix range   [1e+00, 7e+00]
  Objective range  [1e+00, 1e+00]
  Bounds range     [1e+00, 1e+00]
  RHS range        [1e+00, 3e+07]

User MIP start did not produce a new incumbent solution
User MIP start violates constraint initial_start_time_job0_stage0_machine3_constraint by 2.000000000

Presolve removed 43 rows and 51 columns
Presolve time: 0.00s
Presolved: 147 rows, 79 columns, 625 nonzeros
Variable types: 0 continuous, 79 integer (54 binary)

Root relaxation: objective 0.000000e+00, 21 iterations, 0.00 seconds (0.00 work units)
Another try with MIP start

    Nodes    |    Current Node    |     Objective Bounds      |     Work
 Expl Unexpl |  Obj  Depth IntInf | Incumbent    BestBd   Gap | It/Node Time

     0     0    0.00000    0   11          -    0.00000      -     -    0s
H    0     0                      39.0000000    0.00000   100%     -    0s
H    0     0                      29.0000000    0.00000   100%     -    0s
H    0     0                      28.0000000    0.00000   100%     -    0s
     0     0    0.00000    0    7   28.00000    0.00000   100%     -    0s
     0     0    0.00000    0    2   28.00000    0.00000   100%     -    0s
     0     0    0.00000    0    9   28.00000    0.00000   100%     -    0s
     0     0    4.00000    0    4   28.00000    4.00000  85.7%     -    0s
     0     0    6.07084    0   27   28.00000    6.07084  78.3%     -    0s
     0     0    6.08163    0   28   28.00000    6.08163  78.3%     -    0s
     0     0    6.50000    0   26   28.00000    6.50000  76.8%     -    0s
     0     0    7.00000    0    2   28.00000    7.00000  75.0%     -    0s
     0     0    7.00000    0    2   28.00000    7.00000  75.0%     -    0s
     0     0    7.00000    0   15   28.00000    7.00000  75.0%     -    0s
     0     0    7.00000    0   19   28.00000    7.00000  75.0%     -    0s
H    0     0                      26.0000000    7.00000  73.1%     -    0s
H    0     0                      25.0000000    7.00000  72.0%     -    0s
     0     0    7.00000    0   12   25.00000    7.00000  72.0%     -    0s
     0     0    7.00000    0   24   25.00000    7.00000  72.0%     -    0s
     0     0    7.00000    0    8   25.00000    7.00000  72.0%     -    0s
     0     0    7.00000    0    1   25.00000    7.00000  72.0%     -    0s
     0     0    7.74998    0   10   25.00000    7.74998  69.0%     -    0s
     0     0    7.92306    0    8   25.00000    7.92306  68.3%     -    0s
     0     0    8.45316    0   20   25.00000    8.45316  66.2%     -    0s
     0     0    8.46152    0   20   25.00000    8.46152  66.2%     -    0s
     0     0    8.99998    0    4   25.00000    8.99998  64.0%     -    0s
     0     0    9.19700    0   21   25.00000    9.19700  63.2%     -    0s
     0     0    9.29969    0   25   25.00000    9.29969  62.8%     -    0s
     0     0    9.40384    0   23   25.00000    9.40384  62.4%     -    0s
     0     0    9.40384    0   24   25.00000    9.40384  62.4%     -    0s
     0     0   13.17231    0   26   25.00000   13.17231  47.3%     -    0s
     0     0   13.33096    0   27   25.00000   13.33096  46.7%     -    0s
     0     0   13.33096    0   26   25.00000   13.33096  46.7%     -    0s
     0     0   13.90450    0   28   25.00000   13.90450  44.4%     -    0s
     0     0   13.90450    0   30   25.00000   13.90450  44.4%     -    0s
     0     0   14.20454    0   28   25.00000   14.20454  43.2%     -    0s
     0     0   14.20454    0   18   25.00000   14.20454  43.2%     -    0s
     0     0   14.20454    0   16   25.00000   14.20454  43.2%     -    0s

Cutting planes:
  Learned: 8
  Gomory: 4
  Cover: 3
  Implied bound: 4
  MIR: 7
  StrongCG: 1
  Flow cover: 2
  RLT: 2

Explored 1 nodes (767 simplex iterations) in 0.15 seconds (0.04 work units)
Thread count was 16 (of 16 available processors)

Solution count 5: 25 26 28 ... 39

Optimal solution found (tolerance 1.00e-04)
Best objective 2.500000000000e+01, best bound 2.500000000000e+01, gap 0.0000%
Warning: constraint name "precedence between 0,0 to 0,1 if x_[0,0,0,1,1]=0, i.e. 0,1 before 0,0" has a space
Warning: constraint name "precedence between 0,0 to 0,1 if x_[0,0,0,1,1]=0, i.e. 0,1 before 0,0" has a space
Warning: default constraint names used to write mps file
